#dane do zadania 3 lista 4
data;

param n:=20;
param W:=45;
param w:= 1 7
		2 4
		3 8
		4 1
		5 9
		6 7
		7 8
		8 1
		9 10
		10 4
		11 5
		12 5
		13 5
		14 2
		15 8
		16 7
		17 9
		18 2
		19 6
		20 4;
param c:=1 7
		2 2
		3 10
		4 2
		5 5
		6 4
		7 5
		8 3
		9 9
		10 6
		11 7
		12 7
		13 3
		14 1
		15 10
		16 9
		17 8
		18 6
		19 1
		20 8;
set L1:= 2 5
		3 4
		7 11
		10 11;
set L2:= 5 8
		1 14
		13 20
		6 3;
set L3:= 2 19
		 4 15;

end;